%nprocshared=128
%mem=30GB
%chk=4meborinane_dimethylaniline_ts1.chk
#p freq wb97xd/genecp scrf=(solvent=toluene,pcm) nosymm pop=(regular,orbitals=20,nbo,chelpg) optcyc=300 scfcyc=300

4meborinane_dimethylaniline_ts1

0 1
 H                   0.31317900    0.55340500   -1.07065400
 C                   1.33679000    0.41601500   -0.73934400
 C                   2.23454600    1.47162600   -0.81389500
 C                   1.75428200   -0.81181500   -0.24058400
 C                   3.57401100    1.35869500   -0.40129600
 H                   1.87780100    2.41664000   -1.20814000
 C                   3.06858300   -0.95577800    0.17472700
 H                   1.06506000   -1.64645300   -0.17592800
 C                   3.96917100    0.10803800    0.09834000
 H                   3.40677900   -1.91011000    0.56624500
 C                   6.06711100   -1.05235100   -0.25962200
 H                   5.97151600   -0.79919200   -1.31644400
 H                   7.12558100   -1.00990800    0.01270200
 H                   5.71733500   -2.08703700   -0.11549600
 C                   5.43924400   -0.35289000    1.96938700
 H                   5.04990900   -1.34377000    2.25273700
 H                   6.49174900   -0.30391300    2.26294800
 H                   4.88917200    0.40686100    2.52643400
 N                   5.32759200   -0.08663600    0.54169100
 B                   4.47567000    2.67217100   -0.55643900
 C                   5.03688400    3.03748200   -2.03004600
 C                   4.30856100    3.84356000    0.54814300
 C                   6.06791200    4.18292100   -1.94993400
 C                   5.69615400    1.82625100   -2.70676700
 C                   3.86717200    3.47571900   -2.93867500
 C                   5.41067000    4.91035300    0.37873700
 C                   2.92769600    4.51716100    0.38804700
 C                   4.37111700    3.29214800    1.98048400
 C                   5.63697200    5.35337900   -1.06646000
 H                   6.29442200    4.53717700   -2.96444600
 H                   7.01179600    3.78319200   -1.55261900
 H                   6.55875300    1.46679800   -2.13654200
 H                   4.99063900    0.99572900   -2.80977400
 H                   6.05060400    2.09165000   -3.71044000
 H                   4.25832600    3.76001400   -3.92292500
 H                   3.15454800    2.66186000   -3.09359500
 H                   3.31616100    4.33373600   -2.54713800
 H                   5.17360700    5.77823100    1.00851600
 H                   6.35729200    4.50689100    0.76566400
 H                   2.11462900    3.81568900    0.59049100
 H                   2.83825600    5.33835400    1.10932300
 H                   2.76690600    4.93865600   -0.60674900
 H                   5.33657800    2.81968200    2.18808300
 H                   4.23467800    4.09978500    2.71024300
 H                   3.58748100    2.54799800    2.15449400
 H                   6.40675800    6.13154300   -1.09233100
 H                   4.72738000    5.81498300   -1.46744000

H C N B 0
6-311++g(d,p)
****


