%nprocshared=128
%mem=30GB
%chk=cl_dibenzofuran_ts1.chk
#p freq wb97xd/genecp scrf=(solvent=toluene,pcm) nosymm pop=(regular,orbitals=20,nbo,chelpg) optcyc=300 scfcyc=300

cl_dibenzofuran_ts1

0 1
 C                  -1.14471700    0.47977100   -0.64082600
 C                  -0.87384500    1.83952200   -0.44562800
 O                  -0.03013000   -0.19612600   -1.02933900
 C                   0.60321600    1.91547100   -0.43870900
 C                   0.99175600    0.59360800   -0.64893000
 C                   1.57566200    2.77520700    0.07411000
 C                   2.09254800   -0.00821600   -0.07697700
 C                   2.80356200    2.23252700    0.45450100
 H                   1.36487600    3.82163000    0.25913200
 C                   3.05026200    0.85065600    0.45226700
 H                   3.56065500    2.88910400    0.86676800
 H                   3.94671500    0.46893100    0.92555800
 C                  -1.92259800    2.61750600    0.03639600
 H                  -1.80646000    3.68102100    0.21006900
 C                  -3.10885700    1.97015500    0.39309900
 H                  -3.92983400    2.56099600    0.78299400
 C                  -3.22032500    0.57478500    0.39512700
 C                  -2.19385200   -0.23712300   -0.10599900
 H                  -4.08989600    0.11720900    0.85434900
 B                  -1.89413000   -1.77982300    0.17876800
 N                   1.93158700   -1.43218600    0.14171700
 C                   2.16394800   -2.24859200   -1.06671400
 H                   3.21929800   -2.21611900   -1.35539800
 H                   1.87411900   -3.27757300   -0.85078400
 H                   1.54444300   -1.87652400   -1.88004400
 C                   2.68035800   -1.94504600    1.29434200
 H                   2.35771800   -2.96977100    1.48114600
 H                   3.75941400   -1.94228600    1.10958100
 H                   2.45712700   -1.33723600    2.17098900
Cl                  -2.72177600   -2.48434300    1.64200700
Cl                  -1.81754400   -2.91427600   -1.25282900

C O H B N Cl 0
6-311++g(d,p)
****


