%nprocshared=128
%mem=30GB
%chk=cyclo_dibenzofuran_ts1.chk
#p freq wb97xd/genecp scrf=(solvent=toluene,pcm) nosymm pop=(regular,orbitals=20,nbo,chelpg) optcyc=300 scfcyc=300

cyclo_dibenzofuran_ts1

0 1
 C                  -1.19031200    0.85191800   -0.44167700
 C                  -0.64744700    2.11463800   -0.17084000
 O                  -0.25456000    0.03286900   -1.01564900
 C                   0.81239200    1.92333300   -0.31345800
 C                   0.92096200    0.57963100   -0.67344200
 C                   1.97277300    2.53161700    0.16618500
 C                   1.93001900   -0.26345900   -0.26099500
 C                   3.10349400    1.73861600    0.37340400
 H                   1.98379000    3.57422900    0.46096400
 C                   3.07811800    0.34223600    0.23813700
 H                   4.00442100    2.20171100    0.75832200
 H                   3.91901200   -0.24315400    0.58960700
 C                  -1.47438900    3.01714600    0.49513400
 H                  -1.14441400    4.02078100    0.73782700
 C                  -2.71274500    2.55015600    0.94008100
 H                  -3.36624000    3.23111400    1.47482800
 C                  -3.07425000    1.19805700    0.84332000
 C                  -2.27987900    0.26131300    0.16487700
 H                  -3.95816700    0.86418300    1.37811400
 N                   1.50014800   -1.64871900   -0.12306300
 C                   1.45510600   -2.39054100   -1.40117700
 H                   2.46626100   -2.55212300   -1.78401200
 H                   0.96757600   -3.35016100   -1.22431900
 H                   0.86622500   -1.82687200   -2.12121200
 C                   2.22698300   -2.39614100    0.91249400
 H                   1.71936600   -3.34981600    1.06010500
 H                   3.26265000   -2.58450400    0.61718400
 H                   2.20443900   -1.83236700    1.84455900
 B                  -2.21073900   -1.36414400    0.29801300
 C                  -3.00466900   -1.98585600    1.55275500
 H                  -2.92214400   -1.37197400    2.45835200
 C                  -2.43843700   -2.21527900   -1.05209500
 H                  -1.95626600   -1.76380000   -1.92633600
 C                  -3.94987100   -2.35935200   -1.30175900
 H                  -4.38295500   -1.36738000   -1.49095300
 H                  -4.14378000   -2.95673000   -2.20087100
 C                  -4.48952400   -2.16843300    1.17960900
 H                  -4.95686300   -1.18616600    1.02780200
 H                  -5.04014000   -2.64444100    2.00008700
 C                  -4.66681800   -2.98723600   -0.10252900
 H                  -4.26813100   -3.99817900    0.06116200
 H                  -5.73390200   -3.10400700   -0.32361400
 H                  -2.01141600   -3.22285100   -0.94120900
 H                  -2.59447100   -2.97298400    1.80750500

C O H N B 0
6-311++g(d,p)
****


