%nprocshared=128
%mem=30GB
%chk=f_dibenzofuran_ts1.chk
#p freq wb97xd/genecp scrf=(solvent=toluene,pcm) nosymm pop=(regular,orbitals=20,nbo,chelpg) optcyc=300 scfcyc=300

f_dibenzofuran_ts1

0 1
 C                  -1.12282200    0.52810300   -0.77999900
 C                  -0.76045300    1.87347600   -0.64731900
 O                  -0.05145500   -0.24161100   -1.12831800
 C                   0.71777500    1.84956100   -0.62817100
 C                   1.01506400    0.49361100   -0.76745700
 C                   1.74390300    2.66513400   -0.15068100
 C                   2.06782300   -0.14598500   -0.14977300
 C                   2.93044500    2.06184500    0.26966100
 H                   1.60410100    3.73165700   -0.02063400
 C                   3.07994000    0.66882600    0.34535400
 H                   3.72783800    2.68634400    0.65472400
 H                   3.94289100    0.25190800    0.84984100
 C                  -1.75487400    2.74100000   -0.20129300
 H                  -1.56814800    3.80123100   -0.07552800
 C                  -2.97869900    2.18963600    0.18615000
 H                  -3.75646600    2.85073300    0.55168400
 C                  -3.18112300    0.80423700    0.24986600
 C                  -2.21421600   -0.09497800   -0.21736100
 H                  -4.07633300    0.42774800    0.73318000
 B                  -1.99010700   -1.64508600    0.15832700
 N                   1.80078800   -1.54453200    0.15289400
 C                   1.98682700   -2.44883500   -1.00251400
 H                   3.04575400   -2.51526100   -1.26579100
 H                   1.60978000   -3.43552200   -0.73168400
 H                   1.41288300   -2.07477400   -1.84729900
 C                   2.50298500   -2.03819300    1.34633700
 H                   2.10514700   -3.02403900    1.58866300
 H                   3.57900400   -2.11995100    1.17118000
 H                   2.31331900   -1.36257500    2.17984500
 F                  -1.91601000   -2.55686000   -0.86941800
 F                  -2.69494400   -2.10141900    1.24592200

C O H B N F 0
6-311++g(d,p)
****


