%nprocshared=128
%mem=30GB
%chk=h_benzopiperidine_ts1.chk
#p freq wb97xd/genecp scrf=(solvent=toluene,pcm) nosymm pop=(regular,orbitals=20,nbo,chelpg) optcyc=300 scfcyc=300

h_benzopiperidine_ts1

0 1
 H                  -4.34428800   -1.58215100   -0.22513900
 C                  -3.28621600   -1.35192800   -0.17240900
 C                  -2.85217200   -0.03103100   -0.18735700
 C                  -2.34956800   -2.36947500   -0.05665900
 C                  -1.49523300    0.30624700   -0.12809000
 H                  -3.58730600    0.76696200   -0.23083400
 C                  -0.99400300   -2.06786000    0.02148000
 H                  -2.66955100   -3.40555400   -0.02506700
 H                  -0.27609900   -2.87413200    0.11434400
 B                  -1.09651000    1.82079400   -0.12180300
 C                  -0.55509600   -0.74438100   -0.03050000
 N                   0.82201100   -0.41206700    0.07718900
 C                   1.66194200   -1.32293400    0.84686500
 C                   1.45494600   -0.04890100   -1.19524100
 C                   2.98772800   -0.64574200    1.18281300
 H                   1.13061400   -1.59681600    1.76130300
 H                   1.86883600   -2.25468100    0.28923100
 C                   2.77455000    0.67018500   -0.94681400
 H                   0.77239500    0.58323800   -1.76165200
 H                   1.63293300   -0.96034200   -1.79465700
 C                   3.70384500   -0.18677100   -0.08723200
 H                   3.61493500   -1.34053900    1.74907200
 H                   2.78789500    0.21696200    1.82804300
 H                   3.24527100    0.90801900   -1.90522300
 H                   2.56480700    1.61853500   -0.43904300
 H                   4.61450900    0.36421500    0.16359000
 H                   4.01339000   -1.06838500   -0.66309200
 H                  -1.89654200    2.61148000    0.29416300
 H                  -0.17885700    2.25376500   -0.75304400

H C B N 0
6-311++g(d,p)
****


