%nprocshared=128
%mem=30GB
%chk=h_dibenzofuran_ts1.chk
#p freq wb97xd/genecp scrf=(solvent=toluene,pcm) nosymm pop=(regular,orbitals=20,nbo,chelpg) optcyc=300 scfcyc=300

h_dibenzofuran_ts1

0 1
 C                  -1.40060900   -0.42359200   -0.59927600
 C                  -1.66319900    0.94300800   -0.44459000
 O                  -0.11610900   -0.63198400   -1.01934800
 C                  -0.32673800    1.57672100   -0.48464900
 C                   0.53135300    0.49404000   -0.67990900
 C                   0.25645900    2.75274700   -0.01132900
 C                   1.78152800    0.37066100   -0.11231300
 C                   1.60383800    2.72596000    0.35363000
 H                  -0.33215200    3.64614400    0.16020000
 C                   2.35308000    1.53961700    0.37932300
 H                   2.06098600    3.63138500    0.73519100
 H                   3.33064300    1.53611300    0.84582800
 C                  -2.91384200    1.27966100    0.06995300
 H                  -3.21042300    2.31191500    0.21623400
 C                  -3.73989300    0.23777700    0.49817800
 H                  -4.71029300    0.48023600    0.91769000
 C                  -3.29718700   -1.09264100    0.53813700
 C                  -2.05468700   -1.47403700    0.01069700
 H                  -3.90621000   -1.82630800    1.05713700
 B                  -1.14526100   -2.77092500    0.31141900
 N                   2.16201700   -1.00731700    0.15363600
 C                   2.68826200   -1.71566700   -1.03044400
 H                   3.65970200   -1.30583300   -1.32195600
 H                   2.79468000   -2.77259300   -0.78245700
 H                   1.98137400   -1.61805700   -1.85164800
 C                   3.04589000   -1.16482500    1.31539800
 H                   3.12587500   -2.22922900    1.53927700
 H                   4.04586300   -0.76730800    1.11764200
 H                   2.60923100   -0.65302900    2.17263700
 H                  -0.77612900   -3.42300500   -0.63309600
 H                  -1.44144300   -3.39496700    1.30082300

C O H B N 0
6-311++g(d,p)
****


