%nprocshared=128
%mem=30GB
%chk=h_dimethylaniline_ts1.chk
#p freq wb97xd/genecp scrf=(solvent=toluene,pcm) nosymm pop=(regular,orbitals=20,nbo,chelpg) optcyc=300 scfcyc=300

h_dimethylaniline_ts1

0 1
 H                   0.30732700    0.54520700    0.41954000
 C                   1.37778100    0.38898400    0.34915600
 C                   2.21941400    1.43545000   -0.01075000
 C                   1.93010000   -0.84795300    0.64938700
 C                   3.60535000    1.27265200   -0.11934000
 H                   1.79304900    2.41606600   -0.19942400
 C                   3.30555800   -1.03858200    0.56870200
 H                   1.29305600   -1.67241500    0.95139700
 C                   4.14741300    0.00031100    0.17032800
 H                   3.71857000   -2.01030600    0.81173700
 B                   4.47204800    2.51791600   -0.50834600
 C                   6.07151900   -0.33986200   -1.25120700
 H                   5.63545500    0.40166400   -1.91778600
 H                   7.15686500   -0.20889400   -1.25174700
 H                   5.84060900   -1.34263600   -1.64601800
 C                   6.12813500   -1.16026200    1.00611200
 H                   5.93249600   -2.19936900    0.69428900
 H                   7.21207800   -1.02386700    1.03543500
 H                   5.73609600   -1.01788200    2.01455400
 N                   5.56094700   -0.17030000    0.10641200
 H                   4.04187300    3.60528900   -0.24288600
 H                   5.37709000    2.46431600   -1.28586300

H C B N 0
6-311++g(d,p)
****


