%nprocshared=128
%mem=30GB
%chk=h_quinoline_ts1.chk
#p freq wb97xd/genecp scrf=(solvent=toluene,pcm) nosymm pop=(regular,orbitals=20,nbo,chelpg) optcyc=300 scfcyc=300

h_quinoline_ts1

0 1
 C                  -2.29979300   -0.29932900   -0.01492700
 C                  -1.38122100    0.72529600   -0.00443000
 C                  -0.01051600    0.34055100   -0.00125200
 C                   0.40759300   -1.01011400    0.00360700
 C                  -0.58505000   -2.01977100    0.00243900
 C                  -1.90680800   -1.66001900   -0.00923500
 H                  -3.36025500   -0.06797500   -0.02317000
 C                   1.79999700   -1.25555300    0.01099400
 H                  -0.28718000   -3.06264200    0.00953800
 H                  -2.67194500   -2.42875000   -0.01378500
 C                   2.68147900   -0.20489200    0.00935800
 C                   2.17639200    1.11013700   -0.00726300
 H                   2.16101400   -2.27899600    0.01662600
 H                   3.75181500   -0.36630000    0.01505200
 H                   2.84514400    1.96470600   -0.02060400
 N                   0.88874800    1.35930400   -0.01093600
 B                  -1.74313200    2.28348600    0.05227100
 H                  -1.99731500    2.69504000    1.15830700
 H                  -2.48679200    2.66600600   -0.81664200

C H N B 0
6-311++g(d,p)
****


