%nprocshared=128
%mem=30GB
%chk=me_dibenzofuran_ts1.chk
#p freq wb97xd/genecp scrf=(solvent=toluene,pcm) nosymm pop=(regular,orbitals=20,nbo,chelpg) optcyc=300 scfcyc=300

me_dibenzofuran_ts1

0 1
 C                   2.78768500    2.62031600   -0.11239000
 C                   2.41051100    2.83114900   -1.44504600
 O                   2.64754600    3.76901800    0.62101100
 C                   1.69362600    4.12482700   -1.42098800
 C                   1.77490000    4.50593600   -0.08092900
 C                   0.72392400    4.76860700   -2.18985100
 C                   0.77779300    5.15953000    0.60938100
 C                  -0.16649900    5.63455000   -1.55095000
 H                   0.59493000    4.54218100   -3.24159600
 C                  -0.20177900    5.78250800   -0.15626700
 H                  -0.93075400    6.12789400   -2.13985300
 H                  -1.02519100    6.31515300    0.30370400
 C                   2.42901200    1.71614600   -2.28082400
 H                   2.16216900    1.78513800   -3.32918400
 C                   2.70062300    0.47679600   -1.69758800
 H                   2.70567900   -0.40666700   -2.32705500
 C                   2.82339300    0.32212800   -0.30852500
 C                   2.82626300    1.41973100    0.56524900
 H                   2.83892300   -0.68464000    0.09851300
 B                   2.49016500    1.48061000    2.16221800
 N                   0.74535700    4.82171400    2.02737600
 C                   3.63043100    2.09776800    3.11490600
 H                   4.04311700    3.04191200    2.74520100
 H                   3.27020900    2.26236600    4.13754200
 H                   4.46714100    1.38869200    3.18309000
 C                   1.72707400    0.18001600    2.71788000
 H                   2.42184900   -0.67238900    2.73024800
 H                   1.37636800    0.31290600    3.74747700
 H                   0.86909000   -0.11872200    2.10528200
 C                   1.72944500    5.56872000    2.84017400
 H                   1.44873800    6.62319900    2.90260000
 H                   1.75348900    5.13093000    3.83886200
 H                   2.71413700    5.46828700    2.38926600
 C                  -0.59932800    4.87449600    2.61921000
 H                  -0.54587300    4.44087700    3.61821700
 H                  -0.96183000    5.90302200    2.69373000
 H                  -1.28231800    4.28359300    2.00986000

C O H B N 0
6-311++g(d,p)
****


