%nprocshared=128
%mem=30GB
%chk=no2_quinoline_ts1.chk
#p freq wb97xd/genecp scrf=(solvent=toluene,pcm) nosymm pop=(regular,orbitals=20,nbo,chelpg) optcyc=300 scfcyc=300

no2_quinoline_ts1

0 1
 C                  -0.99088600    1.62127300    0.82874700
 C                  -0.88395500    0.35782200    0.28141000
 C                   0.40013800   -0.11363000   -0.13009500
 C                   1.52968100    0.72799200   -0.00074900
 C                   1.36547000    2.02550400    0.54445700
 C                   0.13369100    2.46146100    0.95356200
 H                  -1.95258000    1.99368600    1.16511500
 C                   2.78018500    0.21697700   -0.42081100
 H                   2.23479600    2.66801000    0.63847900
 H                   0.01529200    3.45201100    1.37494800
 C                   2.84687000   -1.05390500   -0.91990000
 C                   1.66054600   -1.81725400   -0.99360200
 H                   3.66699600    0.83663800   -0.33967900
 H                   3.78315000   -1.48324200   -1.25324700
 H                   1.69512500   -2.83161600   -1.38118000
 N                   0.48423200   -1.37811800   -0.61554700
 B                  -2.11469400   -0.53322100    0.07587400
 N                  -3.47688900   -0.07122400    0.66615600
 N                  -2.31691800   -1.44130900   -1.16812700
 O                  -3.63299400   -0.10601300    1.87376900
 O                  -4.28861300    0.36804400   -0.12786800
 O                  -2.26126100   -0.83850300   -2.22270300
 O                  -2.57078400   -2.62629300   -1.05206400

C H N B O 0
6-311++g(d,p)
****


